(1,2,3,4,5,6,7,8,9,10,11,12,13,14,15,16,17,18,20,21,22,23,24,25,26,27,28,29,30,19,1297,1298,1299,1300
,1301,1296,1295,1294,1293,1292,1290,1289,1288,1286,1287,1352,1351,1350,1353,1354,1349,1348,1347,1346
,1345,1344,1343,1355,1356,1357,1285,1284,1283,31,32,33,34,35,36,37,38,39,40,41,42,43,44,45,46,1282,4
7,48,54,53,52,51,50,49,1269,1270,1271,1272,1265,1266,1267,1268,61,62,60,59,58,57,56,55,67,68,69,70,7
1,72,73,74,75,66,65,64,63,1211,1212,1213,1216,1217,1218,1256,1219,1220,1223,1224,1225,1226,1227,1230
,1234,1233,1231,1232,1235,1236,1237,1238,1044,1045,1046,1047,1041,1043,1042,1039,1040,1048,1049,1050
,1051,1054,1052,1053,1038,1037,1435,1434,1433,1432,1431,1430,1429,1428,1427,1426,1425,1423,1424,1239
,1240,1241,1242,1243,1244,1246,1247,1248,1251,1252,1253,1250,1249,1245,1229,1228,1222,1221,1255,1254
,1257,1260,1258,1259,1261,1262,1263,1264,1273,1274,1275,1276,1277,1278,1279,1281,1280,1358,1359,1360
,1361,1362,1363,1364,1365,1366,1367,1368,1369,1370,1371,1372,1373,1374,1375,1376,1377,1378,1379,1380
,1381,1382,1383,1384,1385,1386,1387,1388,1389,1390,1391,1392,1393,1394,1395,1396,1397,1398,1399,1400
,1407,1401,1402,1403,1406,1404,1405,1408,1409,1410,1411,1412,1413,1414,1415,1416,1417,1422,1421,1420
,1418,1419,1504,1505,1506,1507,1330,1331,1332,1333,1329,1328,1327,1326,1325,1324,1322,1321,1323,1334
,1335,1336,1337,1338,1339,1341,1342,1340,1319,1320,1318,1317,1316,1315,1291,1302,1303,1304,1305,1306
,1307,1308,1311,1312,1314,1313,2311,2310,2309,2312,2313,2319,2320,2321,2322,1310,1309,2323,2324,2325
,2326,2327,2328,2329,2330,2331,2334,2333,2332,2316,2317,2318,2315,2314,2297,2298,2308,2307,2306,2305
,2304,2302,2303,2300,2299,2295,2296,2292,2294,2293,2301,2267,2268,2269,2270,2273,2272,2271,2263,2266
,2265,2264,2262,2261,2260,2254,2255,2259,2258,2257,2256,2227,2226,2225,2224,2223,2222,2221,2220,2219
,2218,2217,2216,2214,2215,1530,1529,1528,1527,1526,1525,1524,1523,1522,1521,1489,1520,1519,1518,1517
,1516,1515,1514,1513,1511,1512,1509,1508,1510,1503,1502,1501,1500,1499,1498,1497,1496,1495,1493,1492
,1491,1490,1488,1487,1486,1484,1485,1494,1468,1467,1469,1471,1472,1470,1460,1461,1462,1466,1465,1464
,1463,1439,1438,1437,1436,1440,1441,1443,1442,1445,1459,1446,1444,1447,1448,1449,1451,1450,1453,1452
,1455,1456,1457,1458,1473,1474,1475,1476,1478,1477,1482,1483,1481,1480,1479,1540,1541,1542,1543,1544
,1545,1546,1547,1548,1549,1550,1551,1552,1553,1555,1554,1454,1021,1022,1023,1024,1025,1026,1027,1028
,1029,1030,1032,1031,1033,1034,1036,1035,1062,1063,1061,1064,1065,1059,1060,1058,1055,1056,1057,1066
,1067,1068,1069,1070,1071,1072,1123,1124,1117,1125,1126,1127,1116,1118,1122,1121,1120,1119,1115,1133
,1132,1128,1129,1130,1131,1135,1134,1111,1108,1109,1110,1136,1137,1141,1142,1143,1144,1145,1146,1140
,1139,1138,362,361,360,359,358,357,356,355,354,1147,1148,1149,1150,1151,1152,1153,1154,1155,1157,115
8,1159,1160,1161,1162,1163,1164,1165,1172,1173,1170,1171,1166,1167,1168,1169,1198,1199,1200,1201,120
2,1203,1204,156,155,1205,1206,1207,1214,1215,1208,1209,1210,76,77,78,144,143,79,80,81,82,83,84,85,86
,87,88,89,90,91,142,141,140,139,138,137,145,146,147,148,149,150,151,152,153,154,157,158,160,159,1193
,1192,1191,1190,1189,1188,1187,1185,1181,1180,1194,1195,1196,1197,1179,1178,1177,1174,1156,1175,1176
,1182,1183,1184,1186,175,174,173,172,171,170,168,169,180,184,183,188,187,185,186,165,167,166,164,163
,161,162,197,196,199,198,133,134,136,135,132,131,130,127,128,129,92,93,94,95,96,97,98,99,100,101,102
,103,104,105,106,107,108,109,110,111,112,113,114,115,116,117,118,119,120,121,122,123,124,125,126,205
,204,203,202,201,200,195,194,193,192,191,190,189,251,252,253,247,248,250,249,246,262,263,245,241,242
,243,244,236,237,238,239,240,214,215,216,213,212,211,210,209,217,218,208,207,206,220,221,219,222,223
,224,225,226,227,228,229,230,231,232,233,234,235,269,270,271,272,279,280,281,282,286,285,284,283,278
,277,276,275,273,274,268,267,266,265,264,261,260,259,258,257,256,254,255,182,181,179,178,177,176,353
,352,351,350,349,348,347,346,345,344,343,342,339,341,340,331,332,330,329,327,326,325,386,387,385,380
,381,382,383,384,388,389,390,391,392,393,394,395,396,397,398,301,302,303,304,321,320,319,318,317,316
,322,324,323,328,315,314,313,312,311,310,309,308,307,306,305,292,291,288,287,289,290,293,294,295,296
,297,298,299,300,399,400,401,402,403,404,405,406,408,409,410,411,412,413,414,415,416,417,419,418,440
,441,442,443,444,445,446,447,434,435,433,432,464,460,459,458,448,449,450,451,452,453,454,455,456,457
,461,462,463,482,481,480,479,478,477,476,475,474,473,470,471,472,465,466,467,468,469,951,952,953,956
,957,958,959,920,919,922,921,955,954,948,950,949,947,946,945,944,943,942,941,935,934,933,932,931,930
,929,928,927,926,925,923,924,798,797,796,795,794,793,792,791,790,788,785,786,787,789,936,937,940,939
,938,594,593,592,591,484,483,485,486,487,488,489,490,491,492,493,494,495,496,497,498,499,500,501,502
,503,504,507,508,506,505,523,524,525,526,527,528,529,530,531,532,533,534,535,536,537,538,539,545,546
,543,544,540,541,542,550,551,552,553,554,555,556,549,547,548,517,518,519,520,516,514,515,566,565,564
,557,558,559,560,618,619,561,562,563,567,568,569,570,571,572,573,574,575,576,577,578,579,580,582,581
,512,513,521,522,511,510,509,583,584,585,586,587,588,589,590,598,597,595,596,599,750,749,747,746,745
,744,742,741,743,600,601,602,603,604,605,606,607,608,609,610,611,612,613,614,615,616,617,620,621,622
,623,722,723,726,727,728,725,724,719,720,721,624,625,626,628,629,630,631,632,633,627,718,717,716,715
,731,730,729,732,733,734,735,736,740,739,738,737,713,714,712,711,710,709,708,707,705,706,704,703,702
,701,700,698,699,694,695,696,697,636,635,637,634,638,639,640,641,642,643,644,645,646,647,648,649,650
,651,652,653,654,655,657,656,658,659,661,660,687,688,686,685,683,684,689,690,692,693,691,682,681,680
,679,678,677,676,675,674,673,672,671,669,670,758,757,756,755,748,751,752,753,754,759,778,779,777,781
,780,784,783,782,809,808,806,807,799,800,803,814,813,804,805,812,811,810,771,770,769,774,775,773,772
,776,760,761,762,763,764,765,766,768,767,840,839,834,835,836,837,838,842,841,843,844,845,846,847,848
,849,850,851,852,853,854,855,856,857,858,859,860,861,862,863,1698,864,1689,1690,1694,1695,1696,1697,
1699,1700,1701,1702,1703,1704,1705,1707,1706,1709,1708,1716,1715,1710,1711,1712,1713,1714,1717,1735,
1734,1733,1732,1731,1730,1729,1728,1727,1726,1725,1723,1722,1721,1724,1719,1718,1720,1693,1692,1691,
1688,1687,1686,1685,867,866,865,868,869,870,871,872,873,874,875,876,877,878,879,1561,880,881,882,883
,884,885,886,887,888,890,889,824,825,826,829,830,831,832,833,828,827,823,822,821,820,891,892,893,996
,997,998,999,1000,1001,1002,988,989,990,991,992,993,994,995,894,895,896,819,818,817,816,815,802,801,
898,897,899,900,901,902,903,904,905,906,907,908,909,910,911,912,913,914,915,916,918,917,962,961,960,
422,423,431,430,429,436,437,428,427,438,439,426,425,424,421,420,964,407,965,966,967,968,969,970,971,
972,973,974,975,976,977,978,963,979,980,981,982,983,984,985,986,987,379,378,377,376,375,374,373,372,
371,370,369,334,333,336,338,337,335,364,363,366,365,367,368,1104,1105,1106,1107,1112,1113,1114,1090,
1091,1101,1102,1103,1100,1099,1094,1093,1092,1095,1098,1097,1096,1088,1089,1087,1086,1085,1084,1083,
1082,1081,1074,1073,1075,1080,1079,1076,1078,1077,1018,1019,1020,1003,1004,1005,1006,1007,1008,1009,
1010,1011,1012,1013,1014,1015,1016,1017,1556,1557,1558,1559,1560,1562,1563,1681,1682,1683,1684,1677,
1676,1675,1678,1679,1680,1577,1576,1575,1574,1564,1565,1566,1567,1568,1569,1570,1573,1572,1571,1537,
1538,1539,1536,1535,1534,1533,1532,1531,1585,1584,1583,1582,1581,1580,1586,1587,1588,1589,1590,1591,
1579,1578,1623,1624,1625,1626,1627,1628,1629,1630,1631,1632,1633,1634,1637,1636,1635,1674,1673,1672,
1671,1670,1669,1668,1667,1666,1665,1664,1663,1662,1646,1642,1641,1638,1639,1640,1643,1644,1645,1647,
1648,1657,1661,1660,1659,1658,1656,1655,1649,1650,1651,1652,1654,1653,1847,1846,1845,1844,1843,1842,
1838,1836,1837,1839,1841,1840,1737,1736,1738,1739,1740,1741,1742,1743,1746,1747,1749,1748,1745,1744,
668,667,666,665,664,663,662,1753,1752,1751,1750,1754,1755,1756,1757,1781,1782,1780,1783,1784,1787,17
86,1785,1778,1779,1758,1759,1760,1761,1762,1763,1765,1834,1835,1833,1832,1831,1855,1856,1858,1857,18
60,1859,1861,1862,1864,1863,1828,1829,1830,1827,1826,1825,1824,1823,1822,1821,1820,1818,1819,1768,17
67,1769,1770,1771,1772,1773,1774,1766,1764,1775,1776,1777,1801,1800,1790,1789,1788,1791,1792,1794,17
95,1793,1797,1798,1799,1796,1803,1802,1804,1805,1806,1807,1808,1809,1810,1817,1816,1811,1812,1815,18
13,1814,1871,1872,1873,1870,1869,1868,1867,1866,1865,1976,1975,1877,1878,1876,1874,1875,1879,1880,18
81,1882,1883,1884,1885,1886,1887,1891,1892,1894,1896,1897,1898,1895,1893,1890,1888,1889,1950,1949,19
48,1946,1945,1944,1935,1961,1947,1952,1951,1953,1954,1955,1956,1957,1959,1958,1960,1962,1963,1964,19
65,1966,1967,1968,1969,1970,1971,1972,1973,1974,1977,1978,1979,1980,1981,1982,1983,1984,1985,1986,19
87,1988,1989,1990,1991,1992,1993,1997,1998,2000,1999,1996,1995,1994,1854,1853,1852,1851,1850,1849,18
48,2004,2003,2002,2001,2005,2006,2007,2008,2009,2010,2011,2014,2013,2012,2030,2034,2035,2036,2037,20
33,2032,2031,2039,2038,2041,2040,2042,2043,2044,2045,2046,2047,2048,2049,2050,2060,2059,2061,2062,20
63,2064,2065,2058,2057,2066,2067,2068,2069,2070,2071,2072,2075,2074,2073,2118,2117,2119,2116,2113,21
14,2115,2076,2077,2078,2079,2082,2080,2081,2087,2086,2085,2083,2084,2024,2023,2021,2022,2027,2025,20
26,2029,2028,2015,2016,2017,2018,2019,2020,2091,2090,2089,2088,2104,2093,2092,2094,2095,2096,2097,19
22,1923,1924,1925,1926,1927,1928,1929,1930,1931,1932,1933,1934,1936,1938,1937,1943,1942,1939,1940,19
41,1906,1899,1900,1901,1902,1903,1904,1905,1907,1908,1909,1910,1911,1912,1913,1914,1915,1916,1917,19
18,1919,1920,1921,2098,2099,2100,2101,2102,2103,2105,2106,2107,2108,2109,2110,2111,2112,2120,2121,21
22,2123,2124,2125,2126,2127,2128,2129,1607,1606,1608,1609,1610,1611,1612,1616,1615,1614,1613,2054,20
55,2056,2053,2052,2051,1617,1618,1619,1620,1621,1622,1592,1593,1594,1595,1596,1597,1605,1604,1603,16
02,1601,1598,1599,1600,2200,2201,2202,2203,2204,2205,2207,2206,2213,2212,2211,2210,2209,2208,2232,22
31,2230,2229,2228,2252,2253,2249,2248,2247,2246,2250,2251,2233,2237,2236,2238,2239,2240,2241,2242,22
43,2235,2234,2245,2244,2175,2174,2173,2172,2170,2169,2168,2166,2167,2171,2176,2177,2178,2179,2180,21
81,2182,2183,2184,2185,2186,2187,2188,2189,2190,2191,2192,2193,2199,2198,2197,2194,2196,2195,2136,21
37,2130,2131,2132,2133,2134,2135,2138,2139,2140,2141,2142,2143,2144,2145,2146,2147,2148,2149,2150,21
51,2152,2154,2153,2155,2156,2158,2157,2160,2161,2159,2165,2164,2163,2162,2356,2355,2354,2357,2358,23
59,2360,2353,2351,2352,2348,2349,2350,2282,2283,2281,2280,2279,2278,2277,2276,2275,2274,2291,2288,22
87,2286,2289,2290,2284,2285,2344,2345,2346,2347,2363,2361,2362,2364,2365,2366,2367,2368,2369,2370,23
71,2372,2373,2337,2338,2339,2340,2341,2342,2343,2335,2336,2374,2375,2376,2377,2378,2379,2380,2381,23
82,2383,2384,2385,2386,2387,2388,2389,2390,2391,2392,1)
